c IN1002 Introduction to Algorithms!
c top secret ID string c8496713c32
c 12 variables and 50 clauses
p cnf 12 50
c each line is a clause, 0 marks the end
11 -4 -8 0
11 -9 3 0
11 -8 8 0
12 -3 8 0
1 -11 5 0
-4 10 -1 0
2 -8 -8 0
4 5 1 0
2 11 -4 0
-12 1 -4 0
-5 7 0
2 10 0
-8 -2 -8 0
-11 -2 3 0
9 11 4 0
2 -6 3 0
-10 11 9 0
-6 2 1 0
7 -8 1 0
-7 -6 -10 0
3 1 2 0
-3 -8 -11 0
-3 -4 -1 0
1 -2 11 0
-7 -4 11 0
9 12 -7 0
1 -10 -7 0
-3 -4 9 0
12 -7 -12 0
-4 4 -10 0
12 -7 2 0
-9 -4 -12 0
2 10 1 0
-11 8 8 0
-3 9 4 0
-3 -11 -8 0
-1 -4 3 0
9 -8 2 0
-11 -5 -9 0
3 3 8 0
8 2 -12 0
-3 8 -1 0
-3 -3 -2 0
12 -2 -5 0
7 7 -9 0
-7 -8 6 0
6 2 -4 0
3 7 12 0
6 -11 -10 0
-3 6 10 0
c Good luck!
